mixintcount/benchmarks/random_v2l/8_8_44.smt2
(set-logic QF_LIA)
(set-info :ran/ran2.smt2)
(set-info :smt-lib-version 2.0)
(declare-fun x1 () Int)
(declare-fun x2 () Int)
(declare-fun x3 () Int)
(declare-fun x4 () Int)
(declare-fun x5 () Int)
(declare-fun x6 () Int)
(declare-fun x7 () Int)
(declare-fun x8 () Int)
(assert (<= (+ (* (- 5) x1) (* (- 9) x2) (* (- 6) x3) (* (- 3) x4) (* 6 x5) (* 9 x6) (* 1 x7) (* 7 x8) ) (- 21)))
(assert (<= (+ (* (- 6) x1) (* 1 x2) (* 3 x3) (* 6 x4) (* 2 x5) (* (- 2) x6) (* (- 4) x7) (* 7 x8) ) 9))
(assert (<= (+ (* (- 8) x1) (* (- 2) x2) (* 7 x3) (* (- 1) x4) (* 0 x5) (* 8 x6) (* (- 4) x7) (* 1 x8) ) 5))
(assert (<= (+ (* 6 x1) (* 6 x2) (* 9 x3) (* 3 x4) (* (- 9) x5) (* 10 x6) (* 7 x7) (* (- 4) x8) ) (- 12)))
(assert (<= (+ (* 4 x1) (* 5 x2) (* 0 x3) (* 1 x4) (* 9 x5) (* 9 x6) (* (- 9) x7) (* 2 x8) ) (- 41)))
(assert (<= (+ (* (- 3) x1) (* 6 x2) (* (- 5) x3) (* (- 9) x4) (* 8 x5) (* 1 x6) (* 8 x7) (* (- 4) x8) ) (- 13)))
(assert (<= (+ (* 3 x1) (* 3 x2) (* 0 x3) (* 5 x4) (* (- 2) x5) (* (- 4) x6) (* 4 x7) (* 9 x8) ) (- 1)))
(assert (<= (+ (* 3 x1) (* 5 x2) (* 1 x3) (* (- 6) x4) (* (- 4) x5) (* (- 5) x6) (* 4 x7) (* 5 x8) ) (- 40)))
(assert (<= (+ (* 1 x1) (* 7 x2) (* 3 x3) (* (- 10) x4) (* (- 7) x5) (* (- 1) x6) (* (- 7) x7) (* (- 8) x8) ) (- 43)))
(assert (<= (+ (* 5 x1) (* 8 x2) (* (- 1) x3) (* 4 x4) (* (- 1) x5) (* 10 x6) (* (- 7) x7) (* (- 7) x8) ) (- 18)))
(assert (<= (+ (* (- 1) x1) (* 7 x2) (* (- 7) x3) (* 4 x4) (* (- 2) x5) (* 6 x6) (* (- 8) x7) (* 2 x8) ) 2))
(assert (<= (+ (* (- 5) x1) (* (- 6) x2) (* 7 x3) (* (- 4) x4) (* 5 x5) (* 1 x6) (* 8 x7) (* 3 x8) ) (- 9)))
(assert (<= (+ (* (- 6) x1) (* 7 x2) (* 5 x3) (* (- 2) x4) (* 1 x5) (* 1 x6) (* 7 x7) (* (- 8) x8) ) (- 26)))
(assert (<= (+ (* 4 x1) (* (- 5) x2) (* (- 10) x3) (* 9 x4) (* 5 x5) (* 6 x6) (* (- 9) x7) (* (- 4) x8) ) (- 5)))
(assert (<= (+ (* 8 x1) (* (- 1) x2) (* 3 x3) (* 8 x4) (* 4 x5) (* 5 x6) (* 4 x7) (* 9 x8) ) 37))
(assert (<= (+ (* (- 5) x1) (* 6 x2) (* (- 10) x3) (* 8 x4) (* 10 x5) (* 5 x6) (* 0 x7) (* (- 5) x8) ) (- 4)))
(assert (<= (+ (* 1 x1) (* 0 x2) (* 0 x3) (* 0 x4) (* 0 x5) (* 0 x6) (* 0 x7) (* 0 x8) ) 44))
(assert (<= (+ (* (- 1) x1) (* 0 x2) (* 0 x3) (* 0 x4) (* 0 x5) (* 0 x6) (* 0 x7) (* 0 x8) ) 44))
(assert (<= (+ (* 0 x1) (* 1 x2) (* 0 x3) (* 0 x4) (* 0 x5) (* 0 x6) (* 0 x7) (* 0 x8) ) 44))
(assert (<= (+ (* 0 x1) (* (- 1) x2) (* 0 x3) (* 0 x4) (* 0 x5) (* 0 x6) (* 0 x7) (* 0 x8) ) 44))
(assert (<= (+ (* 0 x1) (* 0 x2) (* 1 x3) (* 0 x4) (* 0 x5) (* 0 x6) (* 0 x7) (* 0 x8) ) 44))
(assert (<= (+ (* 0 x1) (* 0 x2) (* (- 1) x3) (* 0 x4) (* 0 x5) (* 0 x6) (* 0 x7) (* 0 x8) ) 44))
(assert (<= (+ (* 0 x1) (* 0 x2) (* 0 x3) (* 1 x4) (* 0 x5) (* 0 x6) (* 0 x7) (* 0 x8) ) 44))
(assert (<= (+ (* 0 x1) (* 0 x2) (* 0 x3) (* (- 1) x4) (* 0 x5) (* 0 x6) (* 0 x7) (* 0 x8) ) 44))
(assert (<= (+ (* 0 x1) (* 0 x2) (* 0 x3) (* 0 x4) (* 1 x5) (* 0 x6) (* 0 x7) (* 0 x8) ) 44))
(assert (<= (+ (* 0 x1) (* 0 x2) (* 0 x3) (* 0 x4) (* (- 1) x5) (* 0 x6) (* 0 x7) (* 0 x8) ) 44))
(assert (<= (+ (* 0 x1) (* 0 x2) (* 0 x3) (* 0 x4) (* 0 x5) (* 1 x6) (* 0 x7) (* 0 x8) ) 44))
(assert (<= (+ (* 0 x1) (* 0 x2) (* 0 x3) (* 0 x4) (* 0 x5) (* (- 1) x6) (* 0 x7) (* 0 x8) ) 44))
(assert (<= (+ (* 0 x1) (* 0 x2) (* 0 x3) (* 0 x4) (* 0 x5) (* 0 x6) (* 1 x7) (* 0 x8) ) 44))
(assert (<= (+ (* 0 x1) (* 0 x2) (* 0 x3) (* 0 x4) (* 0 x5) (* 0 x6) (* (- 1) x7) (* 0 x8) ) 44))
(assert (<= (+ (* 0 x1) (* 0 x2) (* 0 x3) (* 0 x4) (* 0 x5) (* 0 x6) (* 0 x7) (* 1 x8) ) 44))
(assert (<= (+ (* 0 x1) (* 0 x2) (* 0 x3) (* 0 x4) (* 0 x5) (* 0 x6) (* 0 x7) (* (- 1) x8) ) 44))
