mixintcount/benchmarks/random_v2l/8_8_44.in
32 10
#	x1	x2	x3	x4	x5	x6	x7	x8;		0 = Real; 1 = Integer
	1	1	1	1	1	1	1	1
1	-5	-9	-6	-3	6	9	1	7	-21
1	-6	1	3	6	2	-2	-4	7	9
1	-8	-2	7	-1	0	8	-4	1	5
1	6	6	9	3	-9	10	7	-4	-12
1	4	5	0	1	9	9	-9	2	-41
1	-3	6	-5	-9	8	1	8	-4	-13
1	3	3	0	5	-2	-4	4	9	-1
1	3	5	1	-6	-4	-5	4	5	-40
1	1	7	3	-10	-7	-1	-7	-8	-43
1	5	8	-1	4	-1	10	-7	-7	-18
1	-1	7	-7	4	-2	6	-8	2	2
1	-5	-6	7	-4	5	1	8	3	-9
1	-6	7	5	-2	1	1	7	-8	-26
1	4	-5	-10	9	5	6	-9	-4	-5
1	8	-1	3	8	4	5	4	9	37
1	-5	6	-10	8	10	5	0	-5	-4
1	1	0	0	0	0	0	0	0	44
1	-1	0	0	0	0	0	0	0	44
1	0	1	0	0	0	0	0	0	44
1	0	-1	0	0	0	0	0	0	44
1	0	0	1	0	0	0	0	0	44
1	0	0	-1	0	0	0	0	0	44
1	0	0	0	1	0	0	0	0	44
1	0	0	0	-1	0	0	0	0	44
1	0	0	0	0	1	0	0	0	44
1	0	0	0	0	-1	0	0	0	44
1	0	0	0	0	0	1	0	0	44
1	0	0	0	0	0	-1	0	0	44
1	0	0	0	0	0	0	1	0	44
1	0	0	0	0	0	0	-1	0	44
1	0	0	0	0	0	0	0	1	44
1	0	0	0	0	0	0	0	-1	44
